# Objective value = 4
x0 0
x1 0
x2 0
x3 0
x4 0
x5 0
x6 0
x7 0
x8 0
x9 0
x10 0
x11 0
x12 0
x13 0
x14 0
x15 0
x16 0
x17 0
x18 0
x19 0
x20 0
x21 0
x22 1
x23 0
x24 0
x25 0
x26 0
x27 0
x28 0
x29 0
x30 0
x31 0
x32 0
x33 0
x34 1
x35 0
x36 0
x37 1
x38 0
x39 0
x40 0
x41 1
x42 0
x43 0
x44 0
x45 0
x46 0
x47 0
x48 0
y0,1 0
y0,2 0
y0,3 0
y0,4 0
y0,5 0
y0,6 0
y0,7 0
y0,8 0
y0,9 0
y0,10 0
y0,11 0
y0,12 0
y0,13 0
y0,14 0
y0,15 0
y0,16 0
y0,17 0
y0,18 0
y0,19 0
y0,20 0
y0,21 0
y0,22 0
y0,23 0
y0,24 0
y0,25 0
y0,26 0
y0,27 0
y0,28 0
y0,29 0
y0,30 0
y0,31 0
y0,32 0
y0,33 0
y0,34 0
y0,35 0
y0,36 0
y0,37 0
y0,38 0
y0,39 0
y0,40 0
y0,41 0
y0,42 0
y0,43 0
y0,44 0
y0,45 0
y0,46 0
y0,47 0
y0,48 0
y1,2 0
y1,3 0
y1,4 0
y1,5 0
y1,6 0
y1,7 0
y1,8 0
y1,9 0
y1,10 0
y1,11 0
y1,12 0
y1,13 0
y1,14 0
y1,15 0
y1,16 0
y1,17 0
y1,18 0
y1,19 0
y1,20 0
y1,21 0
y1,22 0
y1,23 0
y1,24 0
y1,25 0
y1,26 0
y1,27 0
y1,28 0
y1,29 0
y1,30 0
y1,31 0
y1,32 0
y1,33 0
y1,34 0
y1,35 0
y1,36 0
y1,37 0
y1,38 0
y1,39 0
y1,40 0
y1,41 0
y1,42 0
y1,43 0
y1,44 0
y1,45 0
y1,46 0
y1,47 0
y1,48 0
y2,3 0
y2,4 0
y2,5 0
y2,6 0
y2,7 0
y2,8 0
y2,9 0
y2,10 0
y2,11 0
y2,12 0
y2,13 0
y2,14 0
y2,15 0
y2,16 0
y2,17 0
y2,18 0
y2,19 0
y2,20 0
y2,21 0
y2,22 0
y2,23 0
y2,24 0
y2,25 0
y2,26 0
y2,27 0
y2,28 0
y2,29 0
y2,30 0
y2,31 0
y2,32 0
y2,33 0
y2,34 0
y2,35 0
y2,36 0
y2,37 0
y2,38 0
y2,39 0
y2,40 0
y2,41 0
y2,42 0
y2,43 0
y2,44 0
y2,45 0
y2,46 0
y2,47 0
y2,48 0
y3,4 0
y3,5 0
y3,6 0
y3,7 0
y3,8 0
y3,9 0
y3,10 0
y3,11 0
y3,12 0
y3,13 0
y3,14 0
y3,15 0
y3,16 0
y3,17 0
y3,18 0
y3,19 0
y3,20 0
y3,21 0
y3,22 0
y3,23 0
y3,24 0
y3,25 0
y3,26 0
y3,27 0
y3,28 0
y3,29 0
y3,30 0
y3,31 0
y3,32 0
y3,33 0
y3,34 0
y3,35 0
y3,36 0
y3,37 0
y3,38 0
y3,39 0
y3,40 0
y3,41 0
y3,42 0
y3,43 0
y3,44 0
y3,45 0
y3,46 0
y3,47 0
y3,48 0
y4,5 0
y4,6 0
y4,7 0
y4,8 0
y4,9 0
y4,10 0
y4,11 0
y4,12 0
y4,13 0
y4,14 0
y4,15 0
y4,16 0
y4,17 0
y4,18 0
y4,19 0
y4,20 0
y4,21 0
y4,22 0
y4,23 0
y4,24 0
y4,25 0
y4,26 0
y4,27 0
y4,28 0
y4,29 0
y4,30 0
y4,31 0
y4,32 0
y4,33 0
y4,34 0
y4,35 0
y4,36 0
y4,37 0
y4,38 0
y4,39 0
y4,40 0
y4,41 0
y4,42 0
y4,43 0
y4,44 0
y4,45 0
y4,46 0
y4,47 0
y4,48 0
y5,6 0
y5,7 0
y5,8 0
y5,9 0
y5,10 0
y5,11 0
y5,12 0
y5,13 0
y5,14 0
y5,15 0
y5,16 0
y5,17 0
y5,18 0
y5,19 0
y5,20 0
y5,21 0
y5,22 0
y5,23 0
y5,24 0
y5,25 0
y5,26 0
y5,27 0
y5,28 0
y5,29 0
y5,30 0
y5,31 0
y5,32 0
y5,33 0
y5,34 0
y5,35 0
y5,36 0
y5,37 0
y5,38 0
y5,39 0
y5,40 0
y5,41 0
y5,42 0
y5,43 0
y5,44 0
y5,45 0
y5,46 0
y5,47 0
y5,48 0
y6,7 0
y6,8 0
y6,9 0
y6,10 0
y6,11 0
y6,12 0
y6,13 0
y6,14 0
y6,15 0
y6,16 0
y6,17 0
y6,18 0
y6,19 0
y6,20 0
y6,21 0
y6,22 0
y6,23 0
y6,24 0
y6,25 0
y6,26 0
y6,27 0
y6,28 0
y6,29 0
y6,30 0
y6,31 0
y6,32 0
y6,33 0
y6,34 0
y6,35 0
y6,36 0
y6,37 0
y6,38 0
y6,39 0
y6,40 0
y6,41 0
y6,42 0
y6,43 0
y6,44 0
y6,45 0
y6,46 0
y6,47 0
y6,48 0
y7,8 0
y7,9 0
y7,10 0
y7,11 0
y7,12 0
y7,13 0
y7,14 0
y7,15 0
y7,16 0
y7,17 0
y7,18 0
y7,19 0
y7,20 0
y7,21 0
y7,22 0
y7,23 0
y7,24 0
y7,25 0
y7,26 0
y7,27 0
y7,28 0
y7,29 0
y7,30 0
y7,31 0
y7,32 0
y7,33 0
y7,34 0
y7,35 0
y7,36 0
y7,37 0
y7,38 0
y7,39 0
y7,40 0
y7,41 0
y7,42 0
y7,43 0
y7,44 0
y7,45 0
y7,46 0
y7,47 0
y7,48 0
y8,9 0
y8,10 0
y8,11 0
y8,12 0
y8,13 0
y8,14 0
y8,15 0
y8,16 0
y8,17 0
y8,18 0
y8,19 0
y8,20 0
y8,21 0
y8,22 0
y8,23 0
y8,24 0
y8,25 0
y8,26 0
y8,27 0
y8,28 0
y8,29 0
y8,30 0
y8,31 0
y8,32 0
y8,33 0
y8,34 0
y8,35 0
y8,36 0
y8,37 0
y8,38 0
y8,39 0
y8,40 0
y8,41 0
y8,42 0
y8,43 0
y8,44 0
y8,45 0
y8,46 0
y8,47 0
y8,48 0
y9,10 0
y9,11 0
y9,12 0
y9,13 0
y9,14 0
y9,15 0
y9,16 0
y9,17 0
y9,18 0
y9,19 0
y9,20 0
y9,21 0
y9,22 0
y9,23 0
y9,24 0
y9,25 0
y9,26 0
y9,27 0
y9,28 0
y9,29 0
y9,30 0
y9,31 0
y9,32 0
y9,33 0
y9,34 0
y9,35 0
y9,36 0
y9,37 0
y9,38 0
y9,39 0
y9,40 0
y9,41 0
y9,42 0
y9,43 0
y9,44 0
y9,45 0
y9,46 0
y9,47 0
y9,48 0
y10,11 0
y10,12 0
y10,13 0
y10,14 0
y10,15 0
y10,16 0
y10,17 0
y10,18 0
y10,19 0
y10,20 0
y10,21 0
y10,22 0
y10,23 0
y10,24 0
y10,25 0
y10,26 0
y10,27 0
y10,28 0
y10,29 0
y10,30 0
y10,31 0
y10,32 0
y10,33 0
y10,34 0
y10,35 0
y10,36 0
y10,37 0
y10,38 0
y10,39 0
y10,40 0
y10,41 0
y10,42 0
y10,43 0
y10,44 0
y10,45 0
y10,46 0
y10,47 0
y10,48 0
y11,12 0
y11,13 0
y11,14 0
y11,15 0
y11,16 0
y11,17 0
y11,18 0
y11,19 0
y11,20 0
y11,21 0
y11,22 0
y11,23 0
y11,24 0
y11,25 0
y11,26 0
y11,27 0
y11,28 0
y11,29 0
y11,30 0
y11,31 0
y11,32 0
y11,33 0
y11,34 0
y11,35 0
y11,36 0
y11,37 0
y11,38 0
y11,39 0
y11,40 0
y11,41 0
y11,42 0
y11,43 0
y11,44 0
y11,45 0
y11,46 0
y11,47 0
y11,48 0
y12,13 0
y12,14 0
y12,15 0
y12,16 0
y12,17 0
y12,18 0
y12,19 0
y12,20 0
y12,21 0
y12,22 0
y12,23 0
y12,24 0
y12,25 0
y12,26 0
y12,27 0
y12,28 0
y12,29 0
y12,30 0
y12,31 0
y12,32 0
y12,33 0
y12,34 0
y12,35 0
y12,36 0
y12,37 0
y12,38 0
y12,39 0
y12,40 0
y12,41 0
y12,42 0
y12,43 0
y12,44 0
y12,45 0
y12,46 0
y12,47 0
y12,48 0
y13,14 0
y13,15 0
y13,16 0
y13,17 0
y13,18 0
y13,19 0
y13,20 0
y13,21 0
y13,22 0
y13,23 0
y13,24 0
y13,25 0
y13,26 0
y13,27 0
y13,28 0
y13,29 0
y13,30 0
y13,31 0
y13,32 0
y13,33 0
y13,34 0
y13,35 0
y13,36 0
y13,37 0
y13,38 0
y13,39 0
y13,40 0
y13,41 0
y13,42 0
y13,43 0
y13,44 0
y13,45 0
y13,46 0
y13,47 0
y13,48 0
y14,15 0
y14,16 0
y14,17 0
y14,18 0
y14,19 0
y14,20 0
y14,21 0
y14,22 0
y14,23 0
y14,24 0
y14,25 0
y14,26 0
y14,27 0
y14,28 0
y14,29 0
y14,30 0
y14,31 0
y14,32 0
y14,33 0
y14,34 0
y14,35 0
y14,36 0
y14,37 0
y14,38 0
y14,39 0
y14,40 0
y14,41 0
y14,42 0
y14,43 0
y14,44 0
y14,45 0
y14,46 0
y14,47 0
y14,48 0
y15,16 0
y15,17 0
y15,18 0
y15,19 0
y15,20 0
y15,21 0
y15,22 0
y15,23 0
y15,24 0
y15,25 0
y15,26 0
y15,27 0
y15,28 0
y15,29 0
y15,30 0
y15,31 0
y15,32 0
y15,33 0
y15,34 0
y15,35 0
y15,36 0
y15,37 0
y15,38 0
y15,39 0
y15,40 0
y15,41 0
y15,42 0
y15,43 0
y15,44 0
y15,45 0
y15,46 0
y15,47 0
y15,48 0
y16,17 0
y16,18 0
y16,19 0
y16,20 0
y16,21 0
y16,22 0
y16,23 0
y16,24 0
y16,25 0
y16,26 0
y16,27 0
y16,28 0
y16,29 0
y16,30 0
y16,31 0
y16,32 0
y16,33 0
y16,34 0
y16,35 0
y16,36 0
y16,37 0
y16,38 0
y16,39 0
y16,40 0
y16,41 0
y16,42 0
y16,43 0
y16,44 0
y16,45 0
y16,46 0
y16,47 0
y16,48 0
y17,18 0
y17,19 0
y17,20 0
y17,21 0
y17,22 0
y17,23 0
y17,24 0
y17,25 0
y17,26 0
y17,27 0
y17,28 0
y17,29 0
y17,30 0
y17,31 0
y17,32 0
y17,33 0
y17,34 0
y17,35 0
y17,36 0
y17,37 0
y17,38 0
y17,39 0
y17,40 0
y17,41 0
y17,42 0
y17,43 0
y17,44 0
y17,45 0
y17,46 0
y17,47 0
y17,48 0
y18,19 0
y18,20 0
y18,21 0
y18,22 0
y18,23 0
y18,24 0
y18,25 0
y18,26 0
y18,27 0
y18,28 0
y18,29 0
y18,30 0
y18,31 0
y18,32 0
y18,33 0
y18,34 0
y18,35 0
y18,36 0
y18,37 0
y18,38 0
y18,39 0
y18,40 0
y18,41 0
y18,42 0
y18,43 0
y18,44 0
y18,45 0
y18,46 0
y18,47 0
y18,48 0
y19,20 0
y19,21 0
y19,22 0
y19,23 0
y19,24 0
y19,25 0
y19,26 0
y19,27 0
y19,28 0
y19,29 0
y19,30 0
y19,31 0
y19,32 0
y19,33 0
y19,34 0
y19,35 0
y19,36 0
y19,37 0
y19,38 0
y19,39 0
y19,40 0
y19,41 0
y19,42 0
y19,43 0
y19,44 0
y19,45 0
y19,46 0
y19,47 0
y19,48 0
y20,21 0
y20,22 0
y20,23 0
y20,24 0
y20,25 0
y20,26 0
y20,27 0
y20,28 0
y20,29 0
y20,30 0
y20,31 0
y20,32 0
y20,33 0
y20,34 0
y20,35 0
y20,36 0
y20,37 0
y20,38 0
y20,39 0
y20,40 0
y20,41 0
y20,42 0
y20,43 0
y20,44 0
y20,45 0
y20,46 0
y20,47 0
y20,48 0
y21,22 0
y21,23 0
y21,24 0
y21,25 0
y21,26 0
y21,27 0
y21,28 0
y21,29 0
y21,30 0
y21,31 0
y21,32 0
y21,33 0
y21,34 0
y21,35 0
y21,36 0
y21,37 0
y21,38 0
y21,39 0
y21,40 0
y21,41 0
y21,42 0
y21,43 0
y21,44 0
y21,45 0
y21,46 0
y21,47 0
y21,48 0
y22,23 0
y22,24 0
y22,25 0
y22,26 0
y22,27 0
y22,28 0
y22,29 0
y22,30 0
y22,31 0
y22,32 0
y22,33 0
y22,34 1
y22,35 0
y22,36 0
y22,37 1
y22,38 0
y22,39 0
y22,40 0
y22,41 1
y22,42 0
y22,43 0
y22,44 0
y22,45 0
y22,46 0
y22,47 0
y22,48 0
y23,24 0
y23,25 0
y23,26 0
y23,27 0
y23,28 0
y23,29 0
y23,30 0
y23,31 0
y23,32 0
y23,33 0
y23,34 0
y23,35 0
y23,36 0
y23,37 0
y23,38 0
y23,39 0
y23,40 0
y23,41 0
y23,42 0
y23,43 0
y23,44 0
y23,45 0
y23,46 0
y23,47 0
y23,48 0
y24,25 0
y24,26 0
y24,27 0
y24,28 0
y24,29 0
y24,30 0
y24,31 0
y24,32 0
y24,33 0
y24,34 0
y24,35 0
y24,36 0
y24,37 0
y24,38 0
y24,39 0
y24,40 0
y24,41 0
y24,42 0
y24,43 0
y24,44 0
y24,45 0
y24,46 0
y24,47 0
y24,48 0
y25,26 0
y25,27 0
y25,28 0
y25,29 0
y25,30 0
y25,31 0
y25,32 0
y25,33 0
y25,34 0
y25,35 0
y25,36 0
y25,37 0
y25,38 0
y25,39 0
y25,40 0
y25,41 0
y25,42 0
y25,43 0
y25,44 0
y25,45 0
y25,46 0
y25,47 0
y25,48 0
y26,27 0
y26,28 0
y26,29 0
y26,30 0
y26,31 0
y26,32 0
y26,33 0
y26,34 0
y26,35 0
y26,36 0
y26,37 0
y26,38 0
y26,39 0
y26,40 0
y26,41 0
y26,42 0
y26,43 0
y26,44 0
y26,45 0
y26,46 0
y26,47 0
y26,48 0
y27,28 0
y27,29 0
y27,30 0
y27,31 0
y27,32 0
y27,33 0
y27,34 0
y27,35 0
y27,36 0
y27,37 0
y27,38 0
y27,39 0
y27,40 0
y27,41 0
y27,42 0
y27,43 0
y27,44 0
y27,45 0
y27,46 0
y27,47 0
y27,48 0
y28,29 0
y28,30 0
y28,31 0
y28,32 0
y28,33 0
y28,34 0
y28,35 0
y28,36 0
y28,37 0
y28,38 0
y28,39 0
y28,40 0
y28,41 0
y28,42 0
y28,43 0
y28,44 0
y28,45 0
y28,46 0
y28,47 0
y28,48 0
y29,30 0
y29,31 0
y29,32 0
y29,33 0
y29,34 0
y29,35 0
y29,36 0
y29,37 0
y29,38 0
y29,39 0
y29,40 0
y29,41 0
y29,42 0
y29,43 0
y29,44 0
y29,45 0
y29,46 0
y29,47 0
y29,48 0
y30,31 0
y30,32 0
y30,33 0
y30,34 0
y30,35 0
y30,36 0
y30,37 0
y30,38 0
y30,39 0
y30,40 0
y30,41 0
y30,42 0
y30,43 0
y30,44 0
y30,45 0
y30,46 0
y30,47 0
y30,48 0
y31,32 0
y31,33 0
y31,34 0
y31,35 0
y31,36 0
y31,37 0
y31,38 0
y31,39 0
y31,40 0
y31,41 0
y31,42 0
y31,43 0
y31,44 0
y31,45 0
y31,46 0
y31,47 0
y31,48 0
y32,33 0
y32,34 0
y32,35 0
y32,36 0
y32,37 0
y32,38 0
y32,39 0
y32,40 0
y32,41 0
y32,42 0
y32,43 0
y32,44 0
y32,45 0
y32,46 0
y32,47 0
y32,48 0
y33,34 0
y33,35 0
y33,36 0
y33,37 0
y33,38 0
y33,39 0
y33,40 0
y33,41 0
y33,42 0
y33,43 0
y33,44 0
y33,45 0
y33,46 0
y33,47 0
y33,48 0
y34,35 0
y34,36 0
y34,37 1
y34,38 0
y34,39 0
y34,40 0
y34,41 1
y34,42 0
y34,43 0
y34,44 0
y34,45 0
y34,46 0
y34,47 0
y34,48 0
y35,36 0
y35,37 0
y35,38 0
y35,39 0
y35,40 0
y35,41 0
y35,42 0
y35,43 0
y35,44 0
y35,45 0
y35,46 0
y35,47 0
y35,48 0
y36,37 0
y36,38 0
y36,39 0
y36,40 0
y36,41 0
y36,42 0
y36,43 0
y36,44 0
y36,45 0
y36,46 0
y36,47 0
y36,48 0
y37,38 0
y37,39 0
y37,40 0
y37,41 1
y37,42 0
y37,43 0
y37,44 0
y37,45 0
y37,46 0
y37,47 0
y37,48 0
y38,39 0
y38,40 0
y38,41 0
y38,42 0
y38,43 0
y38,44 0
y38,45 0
y38,46 0
y38,47 0
y38,48 0
y39,40 0
y39,41 0
y39,42 0
y39,43 0
y39,44 0
y39,45 0
y39,46 0
y39,47 0
y39,48 0
y40,41 0
y40,42 0
y40,43 0
y40,44 0
y40,45 0
y40,46 0
y40,47 0
y40,48 0
y41,42 0
y41,43 0
y41,44 0
y41,45 0
y41,46 0
y41,47 0
y41,48 0
y42,43 0
y42,44 0
y42,45 0
y42,46 0
y42,47 0
y42,48 0
y43,44 0
y43,45 0
y43,46 0
y43,47 0
y43,48 0
y44,45 0
y44,46 0
y44,47 0
y44,48 0
y45,46 0
y45,47 0
y45,48 0
y46,47 0
y46,48 0
y47,48 0
